NAME /Users/henri/Research/solvers/instances/idol-instances/robust/collection/cbp_Subramanyam_et_al_2020/CapBud_N5_3/models/uncertain_technology_matrix/
ROWS
 N  OBJ
 L  capacity
 L  c_75
 L  c_76
 L  c_77
 L  c_78
 L  c_79
COLUMNS
    MARKER    'MARKER'                 'INTORG'
    x_0        OBJ        -5.51816
    x_0        c_75       1
    x_0        capacity   1.10363
    x_1        OBJ        -0.336251
    x_1        c_76       1
    x_1        capacity   0.0672502
    x_2        OBJ        -9.68962
    x_2        c_77       1
    x_2        capacity   1.93792
    x_3        OBJ        -3.20997
    x_3        c_78       1
    x_3        capacity   0.641994
    x_4        OBJ        -2.21263
    x_4        c_79       1
    x_4        capacity   0.442525
    y_0        OBJ        -4.41453
    y_0        c_75       1
    y_0        capacity   1.10363
    y_1        OBJ        -0.269001
    y_1        c_76       1
    y_1        capacity   0.0672502
    y_2        OBJ        -7.75169
    y_2        c_77       1
    y_2        capacity   1.93792
    y_3        OBJ        -2.56798
    y_3        c_78       1
    y_3        capacity   0.641994
    y_4        OBJ        -1.7701
    y_4        c_79       1
    y_4        capacity   0.442525
    MARKER    'MARKER'                 'INTEND'
RHS
    RHS       capacity   10.4833
    RHS       c_75       1
    RHS       c_76       1
    RHS       c_77       1
    RHS       c_78       1
    RHS       c_79       1
BOUNDS
 LI BND       x_0        0
 UI BND       x_0        1
 LI BND       x_1        0
 UI BND       x_1        1
 LI BND       x_2        0
 UI BND       x_2        1
 LI BND       x_3        0
 UI BND       x_3        1
 LI BND       x_4        0
 UI BND       x_4        1
 LI BND       y_0        0
 UI BND       y_0        1
 LI BND       y_1        0
 UI BND       y_1        1
 LI BND       y_2        0
 UI BND       y_2        1
 LI BND       y_3        0
 UI BND       y_3        1
 LI BND       y_4        0
 UI BND       y_4        1
ENDATA
